\Problem name: compact

Minimize
OBJROW: C
Subject To
ord(0,1):  - x(0,1) + x(0,2) >= 7
ord(0,2):  x(0,0) - x(0,2) >= 7
ord(1,1):  x(1,0) - x(1,1) >= 4
ord(1,2):  - x(1,0) + x(1,2) >= 3
ord(2,1):  - x(2,1) + x(2,2) >= 7
ord(2,2):  x(2,0) - x(2,2) >= 6
triangle2(0,1,0):  y(0,1,0) + y(1,0,0) = 1
triangle2(0,1,1):  y(0,1,1) + y(1,0,1) = 1
triangle2(0,1,2):  y(0,1,2) + y(1,0,2) = 1
triangle2(0,2,0):  y(0,2,0) + y(2,0,0) = 1
triangle2(0,2,1):  y(0,2,1) + y(2,0,1) = 1
triangle2(0,2,2):  y(0,2,2) + y(2,0,2) = 1
triangle2(1,2,0):  y(1,2,0) + y(2,1,0) = 1
triangle2(1,2,1):  y(1,2,1) + y(2,1,1) = 1
triangle2(1,2,2):  y(1,2,2) + y(2,1,2) = 1
MCLinV(0,1,0):  - x(0,0) + v(0,1,0)p - v(0,1,0)n + x(1,0) = -3
MCLinV(1,0,0):  x(0,0) + v(1,0,0)p - v(1,0,0)n - x(1,0) = -1
MCLin1(0,1,0):  u(0,1,0)p - u(0,1,0)n >= 0
MCLin2(0,1,0):  23 y(1,0,0) + u(0,1,0)p - u(0,1,0)n >= 0
MCLin3(0,1,0):  -36 y(1,0,0) - v(0,1,0)p + v(0,1,0)n + u(0,1,0)p - u(0,1,0)n >= -36
MCLin4(0,1,0):  -36 y(1,0,0) + u(0,1,0)p - u(0,1,0)n <= 0
MCLin5(0,1,0):  23 y(1,0,0) - v(0,1,0)p + v(0,1,0)n + u(0,1,0)p - u(0,1,0)n <= 23
MCLin6(1,0,0):  u(1,0,0)p - u(1,0,0)n >= 0
MCLin7(1,0,0):  40 y(0,1,0) + u(1,0,0)p - u(1,0,0)n >= 0
MCLin8(1,0,0):  -19 y(0,1,0) - v(1,0,0)p + v(1,0,0)n + u(1,0,0)p - u(1,0,0)n >= -19
MCLin9(1,0,0):  -19 y(0,1,0) + u(1,0,0)p - u(1,0,0)n <= 0
MCLin10(1,0,0):  40 y(0,1,0) - v(1,0,0)p + v(1,0,0)n + u(1,0,0)p - u(1,0,0)n <= 40
MCLinV(0,1,1):  - x(0,1) + v(0,1,1)p - v(0,1,1)n + x(1,1) = -4
MCLinV(1,0,1):  x(0,1) + v(1,0,1)p - v(1,0,1)n - x(1,1) = -7
MCLin1(0,1,1):  u(0,1,1)p - u(0,1,1)n >= 0
MCLin2(0,1,1):  34 y(1,0,1) + u(0,1,1)p - u(0,1,1)n >= 0
MCLin3(0,1,1):  -25 y(1,0,1) - v(0,1,1)p + v(0,1,1)n + u(0,1,1)p - u(0,1,1)n >= -25
MCLin4(0,1,1):  -25 y(1,0,1) + u(0,1,1)p - u(0,1,1)n <= 0
MCLin5(0,1,1):  34 y(1,0,1) - v(0,1,1)p + v(0,1,1)n + u(0,1,1)p - u(0,1,1)n <= 34
MCLin6(1,0,1):  u(1,0,1)p - u(1,0,1)n >= 0
MCLin7(1,0,1):  36 y(0,1,1) + u(1,0,1)p - u(1,0,1)n >= 0
MCLin8(1,0,1):  -23 y(0,1,1) - v(1,0,1)p + v(1,0,1)n + u(1,0,1)p - u(1,0,1)n >= -23
MCLin9(1,0,1):  -23 y(0,1,1) + u(1,0,1)p - u(1,0,1)n <= 0
MCLin10(1,0,1):  36 y(0,1,1) - v(1,0,1)p + v(1,0,1)n + u(1,0,1)p - u(1,0,1)n <= 36
MCLinV(0,1,2):  - x(0,2) + v(0,1,2)p - v(0,1,2)n + x(1,2) = -7
MCLinV(1,0,2):  x(0,2) + v(1,0,2)p - v(1,0,2)n - x(1,2) = -7
MCLin1(0,1,2):  u(0,1,2)p - u(0,1,2)n >= 0
MCLin2(0,1,2):  37 y(1,0,2) + u(0,1,2)p - u(0,1,2)n >= 0
MCLin3(0,1,2):  -22 y(1,0,2) - v(0,1,2)p + v(0,1,2)n + u(0,1,2)p - u(0,1,2)n >= -22
MCLin4(0,1,2):  -22 y(1,0,2) + u(0,1,2)p - u(0,1,2)n <= 0
MCLin5(0,1,2):  37 y(1,0,2) - v(0,1,2)p + v(0,1,2)n + u(0,1,2)p - u(0,1,2)n <= 37
MCLin6(1,0,2):  u(1,0,2)p - u(1,0,2)n >= 0
MCLin7(1,0,2):  36 y(0,1,2) + u(1,0,2)p - u(1,0,2)n >= 0
MCLin8(1,0,2):  -23 y(0,1,2) - v(1,0,2)p + v(1,0,2)n + u(1,0,2)p - u(1,0,2)n >= -23
MCLin9(1,0,2):  -23 y(0,1,2) + u(1,0,2)p - u(1,0,2)n <= 0
MCLin10(1,0,2):  36 y(0,1,2) - v(1,0,2)p + v(1,0,2)n + u(1,0,2)p - u(1,0,2)n <= 36
MCLinV(0,2,0):  - x(0,0) + v(0,2,0)p - v(0,2,0)n + x(2,0) = -2
MCLinV(2,0,0):  x(0,0) + v(2,0,0)p - v(2,0,0)n - x(2,0) = -1
MCLin1(0,2,0):  u(0,2,0)p - u(0,2,0)n >= 0
MCLin2(0,2,0):  30 y(2,0,0) + u(0,2,0)p - u(0,2,0)n >= 0
MCLin3(0,2,0):  -28 y(2,0,0) - v(0,2,0)p + v(0,2,0)n + u(0,2,0)p - u(0,2,0)n >= -28
MCLin4(0,2,0):  -28 y(2,0,0) + u(0,2,0)p - u(0,2,0)n <= 0
MCLin5(0,2,0):  30 y(2,0,0) - v(0,2,0)p + v(0,2,0)n + u(0,2,0)p - u(0,2,0)n <= 30
MCLin6(2,0,0):  u(2,0,0)p - u(2,0,0)n >= 0
MCLin7(2,0,0):  31 y(0,2,0) + u(2,0,0)p - u(2,0,0)n >= 0
MCLin8(2,0,0):  -27 y(0,2,0) - v(2,0,0)p + v(2,0,0)n + u(2,0,0)p - u(2,0,0)n >= -27
MCLin9(2,0,0):  -27 y(0,2,0) + u(2,0,0)p - u(2,0,0)n <= 0
MCLin10(2,0,0):  31 y(0,2,0) - v(2,0,0)p + v(2,0,0)n + u(2,0,0)p - u(2,0,0)n <= 31
MCLinV(0,2,1):  - x(0,1) + v(0,2,1)p - v(0,2,1)n + x(2,1) = -7
MCLinV(2,0,1):  x(0,1) + v(2,0,1)p - v(2,0,1)n - x(2,1) = -7
MCLin1(0,2,1):  u(0,2,1)p - u(0,2,1)n >= 0
MCLin2(0,2,1):  36 y(2,0,1) + u(0,2,1)p - u(0,2,1)n >= 0
MCLin3(0,2,1):  -22 y(2,0,1) - v(0,2,1)p + v(0,2,1)n + u(0,2,1)p - u(0,2,1)n >= -22
MCLin4(0,2,1):  -22 y(2,0,1) + u(0,2,1)p - u(0,2,1)n <= 0
MCLin5(0,2,1):  36 y(2,0,1) - v(0,2,1)p + v(0,2,1)n + u(0,2,1)p - u(0,2,1)n <= 36
MCLin6(2,0,1):  u(2,0,1)p - u(2,0,1)n >= 0
MCLin7(2,0,1):  36 y(0,2,1) + u(2,0,1)p - u(2,0,1)n >= 0
MCLin8(2,0,1):  -22 y(0,2,1) - v(2,0,1)p + v(2,0,1)n + u(2,0,1)p - u(2,0,1)n >= -22
MCLin9(2,0,1):  -22 y(0,2,1) + u(2,0,1)p - u(2,0,1)n <= 0
MCLin10(2,0,1):  36 y(0,2,1) - v(2,0,1)p + v(2,0,1)n + u(2,0,1)p - u(2,0,1)n <= 36
MCLinV(0,2,2):  - x(0,2) + v(0,2,2)p - v(0,2,2)n + x(2,2) = -6
MCLinV(2,0,2):  x(0,2) + v(2,0,2)p - v(2,0,2)n - x(2,2) = -7
MCLin1(0,2,2):  u(0,2,2)p - u(0,2,2)n >= 0
MCLin2(0,2,2):  35 y(2,0,2) + u(0,2,2)p - u(0,2,2)n >= 0
MCLin3(0,2,2):  -23 y(2,0,2) - v(0,2,2)p + v(0,2,2)n + u(0,2,2)p - u(0,2,2)n >= -23
MCLin4(0,2,2):  -23 y(2,0,2) + u(0,2,2)p - u(0,2,2)n <= 0
MCLin5(0,2,2):  35 y(2,0,2) - v(0,2,2)p + v(0,2,2)n + u(0,2,2)p - u(0,2,2)n <= 35
MCLin6(2,0,2):  u(2,0,2)p - u(2,0,2)n >= 0
MCLin7(2,0,2):  36 y(0,2,2) + u(2,0,2)p - u(2,0,2)n >= 0
MCLin8(2,0,2):  -22 y(0,2,2) - v(2,0,2)p + v(2,0,2)n + u(2,0,2)p - u(2,0,2)n >= -22
MCLin9(2,0,2):  -22 y(0,2,2) + u(2,0,2)p - u(2,0,2)n <= 0
MCLin10(2,0,2):  36 y(0,2,2) - v(2,0,2)p + v(2,0,2)n + u(2,0,2)p - u(2,0,2)n <= 36
MCLinV(1,2,0):  - x(1,0) + v(1,2,0)p - v(1,2,0)n + x(2,0) = -2
MCLinV(2,1,0):  x(1,0) + v(2,1,0)p - v(2,1,0)n - x(2,0) = -3
MCLin1(1,2,0):  u(1,2,0)p - u(1,2,0)n >= 0
MCLin2(1,2,0):  40 y(2,1,0) + u(1,2,0)p - u(1,2,0)n >= 0
MCLin3(1,2,0):  -19 y(2,1,0) - v(1,2,0)p + v(1,2,0)n + u(1,2,0)p - u(1,2,0)n >= -19
MCLin4(1,2,0):  -19 y(2,1,0) + u(1,2,0)p - u(1,2,0)n <= 0
MCLin5(1,2,0):  40 y(2,1,0) - v(1,2,0)p + v(1,2,0)n + u(1,2,0)p - u(1,2,0)n <= 40
MCLin6(2,1,0):  u(2,1,0)p - u(2,1,0)n >= 0
MCLin7(2,1,0):  24 y(1,2,0) + u(2,1,0)p - u(2,1,0)n >= 0
MCLin8(2,1,0):  -35 y(1,2,0) - v(2,1,0)p + v(2,1,0)n + u(2,1,0)p - u(2,1,0)n >= -35
MCLin9(2,1,0):  -35 y(1,2,0) + u(2,1,0)p - u(2,1,0)n <= 0
MCLin10(2,1,0):  24 y(1,2,0) - v(2,1,0)p + v(2,1,0)n + u(2,1,0)p - u(2,1,0)n <= 24
MCLinV(1,2,1):  - x(1,1) + v(1,2,1)p - v(1,2,1)n + x(2,1) = -7
MCLinV(2,1,1):  x(1,1) + v(2,1,1)p - v(2,1,1)n - x(2,1) = -4
MCLin1(1,2,1):  u(1,2,1)p - u(1,2,1)n >= 0
MCLin2(1,2,1):  36 y(2,1,1) + u(1,2,1)p - u(1,2,1)n >= 0
MCLin3(1,2,1):  -23 y(2,1,1) - v(1,2,1)p + v(1,2,1)n + u(1,2,1)p - u(1,2,1)n >= -23
MCLin4(1,2,1):  -23 y(2,1,1) + u(1,2,1)p - u(1,2,1)n <= 0
MCLin5(1,2,1):  36 y(2,1,1) - v(1,2,1)p + v(1,2,1)n + u(1,2,1)p - u(1,2,1)n <= 36
MCLin6(2,1,1):  u(2,1,1)p - u(2,1,1)n >= 0
MCLin7(2,1,1):  34 y(1,2,1) + u(2,1,1)p - u(2,1,1)n >= 0
MCLin8(2,1,1):  -25 y(1,2,1) - v(2,1,1)p + v(2,1,1)n + u(2,1,1)p - u(2,1,1)n >= -25
MCLin9(2,1,1):  -25 y(1,2,1) + u(2,1,1)p - u(2,1,1)n <= 0
MCLin10(2,1,1):  34 y(1,2,1) - v(2,1,1)p + v(2,1,1)n + u(2,1,1)p - u(2,1,1)n <= 34
MCLinV(1,2,2):  - x(1,2) + v(1,2,2)p - v(1,2,2)n + x(2,2) = -6
MCLinV(2,1,2):  x(1,2) + v(2,1,2)p - v(2,1,2)n - x(2,2) = -7
MCLin1(1,2,2):  u(1,2,2)p - u(1,2,2)n >= 0
MCLin2(1,2,2):  35 y(2,1,2) + u(1,2,2)p - u(1,2,2)n >= 0
MCLin3(1,2,2):  -24 y(2,1,2) - v(1,2,2)p + v(1,2,2)n + u(1,2,2)p - u(1,2,2)n >= -24
MCLin4(1,2,2):  -24 y(2,1,2) + u(1,2,2)p - u(1,2,2)n <= 0
MCLin5(1,2,2):  35 y(2,1,2) - v(1,2,2)p + v(1,2,2)n + u(1,2,2)p - u(1,2,2)n <= 35
MCLin6(2,1,2):  u(2,1,2)p - u(2,1,2)n >= 0
MCLin7(2,1,2):  37 y(1,2,2) + u(2,1,2)p - u(2,1,2)n >= 0
MCLin8(2,1,2):  -22 y(1,2,2) - v(2,1,2)p + v(2,1,2)n + u(2,1,2)p - u(2,1,2)n >= -22
MCLin9(2,1,2):  -22 y(1,2,2) + u(2,1,2)p - u(2,1,2)n <= 0
MCLin10(2,1,2):  37 y(1,2,2) - v(2,1,2)p + v(2,1,2)n + u(2,1,2)p - u(2,1,2)n <= 37
makespan(0):  C - x(0,0) >= 1
makespan(1):  C - x(1,2) >= 7
makespan(2):  C - x(2,0) >= 2
cut_clique_1(0,0):  0.04768 x(0,0) + 0.02221 x(2,0) >= 1
cut_clique_1(1,0):  0.02078 x(0,0) + 0.05302 x(2,0) >= 1
cut_clique_1(2,0):  0.02399 x(0,0) + 0.05029 x(2,0) >= 1
cut_clique_1(3,0):  0.02375 x(0,0) + 0.05029 x(2,0) >= 1
cut_clique_1(4,0):  0.02327 x(0,0) + 0.05029 x(2,0) >= 1
cut_clique_1(5,0):  0.05101 x(0,0) + 0.02087 x(2,0) >= 1
cut_clique_1(6,0):  0.04235 x(0,0) + 0.02987 x(2,0) >= 1
cut_clique_1(7,0):  0.04277 x(0,0) + 0.02987 x(2,0) >= 1
cut_clique_1(8,0):  0.04234 x(0,0) + 0.02987 x(2,0) >= 1
cut_clique_1(9,0):  0.04149 x(0,0) + 0.02987 x(2,0) >= 1
cut_clique_1(10,0):  0.04698 x(0,0) + 0.02517 x(2,0) >= 1
cut_clique_1(11,0):  0.04698 x(0,0) + 0.02441 x(2,0) >= 1
cut_clique_1(12,0):  0.04675 x(0,0) + 0.02448 x(2,0) >= 1
cut_clique_1(13,0):  0.04429 x(0,0) + 0.02751 x(2,0) >= 1
cut_clique_1(14,0):  0.04657 x(0,0) + 0.02416 x(2,0) >= 1
cut_clique_1(15,0):  0.04657 x(0,0) + 0.02344 x(2,0) >= 1
cut_clique_1(16,0):  0.04657 x(0,0) + 0.02321 x(2,0) >= 1
cut_clique_1(17,0):  0.04814 x(0,0) + 0.02185 x(2,0) >= 1
cut_clique_1(18,0):  0.04910 x(0,0) + 0.02185 x(2,0) >= 1
cut_clique_1(19,0):  0.05180 x(0,0) + 0.01857 x(2,0) >= 1
cut_clique_1(20,0):  0.05068 x(0,0) + 0.02136 x(2,0) >= 1
cut_clique_1(21,0):  0.04916 x(0,0) + 0.02136 x(2,0) >= 1
cut_clique_1(22,0):  0.04867 x(0,0) + 0.02136 x(2,0) >= 1
cut_clique_1(23,0):  0.04867 x(0,0) + 0.02281 x(2,0) >= 1
cut_clique_1(24,0):  0.04867 x(0,0) + 0.02372 x(2,0) >= 1
cut_clique_1(25,0):  0.04017 x(0,0) + 0.03083 x(2,0) >= 1
cut_clique_1(26,0):  0.04205 x(0,0) + 0.03062 x(2,0) >= 1
cut_clique_1(27,0):  0.03805 x(0,0) + 0.03503 x(2,0) >= 1
cut_clique_1(28,0):  0.03691 x(0,0) + 0.03503 x(2,0) >= 1
cut_clique_1(29,0):  0.06217 x(0,0) + 0.00886 x(2,0) >= 1
cut_clique_1(30,0):  0.04143 x(0,0) + 0.02999 x(2,0) >= 1
cut_clique_1(31,0):  0.04143 x(0,0) + 0.02939 x(2,0) >= 1
cut_clique_1(32,0):  0.04143 x(0,0) + 0.02997 x(2,0) >= 1
cut_clique_1(33,0):  0.04122 x(0,0) + 0.02990 x(2,0) >= 1
cut_clique_1(34,0):  0.04433 x(0,0) + 0.02828 x(2,0) >= 1
cut_clique_1(35,0):  0.03715 x(0,0) + 0.03483 x(2,0) >= 1
cut_clique_1(36,0):  0.03722 x(0,0) + 0.03483 x(2,0) >= 1
cut_clique_1(37,0):  0.03714 x(0,0) + 0.03483 x(2,0) >= 1
cut_clique_1(38,0):  0.04022 x(0,0) + 0.03062 x(2,0) >= 1
cut_clique_1(39,0):  0.04022 x(0,0) + 0.03093 x(2,0) >= 1
cut_clique_1(40,0):  0.04022 x(0,0) + 0.03277 x(2,0) >= 1
cut_clique_1(41,0):  0.03861 x(0,0) + 0.03277 x(2,0) >= 1
cut_clique_1(42,0):  0.03861 x(0,0) + 0.03245 x(2,0) >= 1
cut_clique_1(43,0):  0.04017 x(0,0) + 0.03245 x(2,0) >= 1
cut_clique_1(44,0):  0.02774 x(0,0) + 0.04528 x(2,0) >= 1
cut_clique_1(45,0):  0.04054 x(0,0) + 0.03104 x(2,0) >= 1
cut_clique_1(46,0):  0.04054 x(0,0) + 0.03260 x(2,0) >= 1
cut_clique_1(47,0):  0.04662 x(0,0) + 0.02458 x(2,0) >= 1
cut_clique_1(48,0):  0.04662 x(0,0) + 0.02403 x(2,0) >= 1
cut_clique_1(49,0):  0.04662 x(0,0) + 0.02595 x(2,0) >= 1
cut_clique_1(0,1):  0.67026 x(0,1) + 0.88567 x(1,1) + 0.41834 x(2,1) >= 1
cut_clique_1(1,1):  0.71109 x(0,1) + 0.94966 x(1,1) + 0.32447 x(2,1) >= 1
cut_clique_1(2,1):  0.72989 x(0,1) + 0.88362 x(1,1) + 0.34472 x(2,1) >= 1
cut_clique_1(3,1):  0.63848 x(0,1) + 0.94301 x(1,1) + 0.46027 x(2,1) >= 1
cut_clique_1(4,1):  0.64169 x(0,1) + 0.91899 x(1,1) + 0.42538 x(2,1) >= 1
cut_clique_1(5,1):  0.72989 x(0,1) + 0.88362 x(1,1) + 0.31918 x(2,1) >= 1
cut_clique_1(6,1):  0.64163 x(0,1) + 0.93652 x(1,1) + 0.46027 x(2,1) >= 1
cut_clique_1(7,1):  0.59671 x(0,1) + 0.96462 x(1,1) + 0.46027 x(2,1) >= 1
cut_clique_1(8,1):  0.70795 x(0,1) + 0.82249 x(1,1) + 0.45566 x(2,1) >= 1
cut_clique_1(9,1):  0.64169 x(0,1) + 0.91899 x(1,1) + 0.44257 x(2,1) >= 1
cut_clique_1(10,1):  0.69715 x(0,1) + 0.94966 x(1,1) + 0.32447 x(2,1) >= 1
cut_clique_1(11,1):  0.63527 x(0,1) + 0.91816 x(1,1) + 0.44257 x(2,1) >= 1
cut_clique_1(12,1):  0.64169 x(0,1) + 0.91899 x(1,1) + 0.43389 x(2,1) >= 1
cut_clique_1(13,1):  0.63848 x(0,1) + 0.90674 x(1,1) + 0.46027 x(2,1) >= 1
cut_clique_1(14,1):  0.70795 x(0,1) + 0.83894 x(1,1) + 0.45566 x(2,1) >= 1
cut_clique_1(15,1):  0.70795 x(0,1) + 0.83928 x(1,1) + 0.46027 x(2,1) >= 1
cut_clique_1(16,1):  0.64163 x(0,1) + 0.91816 x(1,1) + 0.46027 x(2,1) >= 1
cut_clique_1(17,1):  0.70340 x(0,1) + 0.99048 x(1,1) + 0.30472 x(2,1) >= 1
cut_clique_1(18,1):  0.70340 x(0,1) + 0.99048 x(1,1) + 0.29021 x(2,1) >= 1
cut_clique_1(19,1):  0.71132 x(0,1) + 0.93172 x(1,1) + 0.32664 x(2,1) >= 1
cut_clique_1(20,1):  0.59671 x(0,1) + 0.90674 x(1,1) + 0.46027 x(2,1) >= 1
cut_clique_1(21,1):  0.71510 x(0,1) + 0.75505 x(1,1) + 0.46022 x(2,1) >= 1
cut_clique_1(22,1):  0.70340 x(0,1) + 0.95086 x(1,1) + 0.27121 x(2,1) >= 1
cut_clique_1(23,1):  0.71884 x(0,1) + 0.91095 x(1,1) + 0.31918 x(2,1) >= 1
cut_clique_1(24,1):  0.76197 x(0,1) + 0.91095 x(1,1) + 0.31918 x(2,1) >= 1
cut_clique_1(25,1):  0.69715 x(0,1) + 0.94966 x(1,1) + 0.29231 x(2,1) >= 1
cut_clique_1(26,1):  0.71510 x(0,1) + 0.75505 x(1,1) + 0.45566 x(2,1) >= 1
cut_clique_1(27,1):  0.70340 x(0,1) + 0.99048 x(1,1) + 0.27379 x(2,1) >= 1
cut_clique_1(28,1):  0.71109 x(0,1) + 0.93377 x(1,1) + 0.36990 x(2,1) >= 1
cut_clique_1(29,1):  0.72989 x(0,1) + 0.94547 x(1,1) + 0.34472 x(2,1) >= 1
cut_clique_1(30,1):  0.73655 x(0,1) + 0.77015 x(1,1) + 0.41834 x(2,1) >= 1
cut_clique_1(31,1):  0.69737 x(0,1) + 0.93172 x(1,1) + 0.32664 x(2,1) >= 1
cut_clique_1(32,1):  0.71109 x(0,1) + 0.94966 x(1,1) + 0.36990 x(2,1) >= 1
cut_clique_1(33,1):  0.63527 x(0,1) + 0.89142 x(1,1) + 0.44257 x(2,1) >= 1
cut_clique_1(34,1):  0.76197 x(0,1) + 0.88362 x(1,1) + 0.31918 x(2,1) >= 1
cut_clique_1(35,1):  0.59671 x(0,1) + 0.93652 x(1,1) + 0.46027 x(2,1) >= 1
cut_clique_1(36,1):  0.67026 x(0,1) + 0.88567 x(1,1) + 0.38069 x(2,1) >= 1
cut_clique_1(37,1):  0.71843 x(0,1) + 0.91830 x(1,1) + 0.31684 x(2,1) >= 1
cut_clique_1(38,1):  0.98766 x(0,1) + 0.98988 x(1,1) >= 1
cut_clique_1(39,1):  0.66843 x(0,1) + 0.93377 x(1,1) + 0.36990 x(2,1) >= 1
cut_clique_1(40,1):  0.73655 x(0,1) + 0.88567 x(1,1) + 0.41834 x(2,1) >= 1
cut_clique_1(41,1):  0.71529 x(0,1) + 0.94547 x(1,1) + 0.34472 x(2,1) >= 1
cut_clique_1(42,1):  0.64169 x(0,1) + 0.89142 x(1,1) + 0.44257 x(2,1) >= 1
cut_clique_1(43,1):  0.63848 x(0,1) + 0.83928 x(1,1) + 0.46027 x(2,1) >= 1
cut_clique_1(44,1):  0.71109 x(0,1) + 0.90657 x(1,1) + 0.36990 x(2,1) >= 1
cut_clique_1(45,1):  0.70340 x(0,1) + 0.91711 x(1,1) + 0.30763 x(2,1) >= 1
cut_clique_1(46,1):  0.70340 x(0,1) + 0.95086 x(1,1) + 0.30472 x(2,1) >= 1
cut_clique_1(47,1):  0.63527 x(0,1) + 0.91816 x(1,1) + 0.46027 x(2,1) >= 1
cut_clique_1(48,1):  0.70795 x(0,1) + 0.82249 x(1,1) + 0.46027 x(2,1) >= 1
cut_clique_1(49,1):  0.71510 x(0,1) + 0.83928 x(1,1) + 0.46027 x(2,1) >= 1
cut_clique_1(0,2):  0.00410 x(0,2) + 0.06870 x(1,2) + 0.03343 x(2,2) >= 1
cut_clique_1(1,2):  0.00481 x(0,2) + 0.04950 x(1,2) + 0.04267 x(2,2) >= 1
cut_clique_1(2,2):  0.06502 x(0,2) + 0.04196 x(2,2) >= 1
cut_clique_1(3,2):  0.00445 x(0,2) + 0.04950 x(1,2) + 0.04822 x(2,2) >= 1
cut_clique_1(4,2):  0.00445 x(0,2) + 0.04950 x(1,2) + 0.04267 x(2,2) >= 1
cut_clique_1(5,2):  0.00479 x(0,2) + 0.06870 x(1,2) + 0.03343 x(2,2) >= 1
cut_clique_1(6,2):  0.06247 x(0,2) + 0.04165 x(2,2) >= 1
cut_clique_1(7,2):  0.04964 x(0,2) + 0.05177 x(2,2) >= 1
cut_clique_1(8,2):  0.05542 x(0,2) + 0.04582 x(2,2) >= 1
cut_clique_1(9,2):  0.05327 x(0,2) + 0.05190 x(2,2) >= 1
cut_clique_1(10,2):  0.00425 x(0,2) + 0.04950 x(1,2) + 0.04267 x(2,2) >= 1
cut_clique_1(11,2):  0.04933 x(0,2) + 0.05176 x(2,2) >= 1
cut_clique_1(12,2):  0.00481 x(0,2) + 0.04796 x(1,2) + 0.04389 x(2,2) >= 1
cut_clique_1(13,2):  0.04964 x(0,2) + 0.05155 x(2,2) >= 1
cut_clique_1(14,2):  0.00351 x(0,2) + 0.04796 x(1,2) + 0.04389 x(2,2) >= 1
cut_clique_1(15,2):  0.06917 x(0,2) + 0.03685 x(2,2) >= 1
cut_clique_1(16,2):  0.00410 x(0,2) + 0.06054 x(1,2) + 0.03569 x(2,2) >= 1
cut_clique_1(17,2):  0.00463 x(0,2) + 0.06054 x(1,2) + 0.03569 x(2,2) >= 1
cut_clique_1(18,2):  0.06227 x(0,2) + 0.04405 x(2,2) >= 1
cut_clique_1(19,2):  0.00423 x(0,2) + 0.06870 x(1,2) + 0.03343 x(2,2) >= 1
cut_clique_1(20,2):  0.06502 x(0,2) + 0.04006 x(2,2) >= 1
cut_clique_1(21,2):  0.04660 x(0,2) + 0.05716 x(2,2) >= 1
cut_clique_1(22,2):  0.05327 x(0,2) + 0.04969 x(2,2) >= 1
cut_clique_1(23,2):  0.06227 x(0,2) + 0.04196 x(2,2) >= 1
cut_clique_1(24,2):  0.06381 x(0,2) + 0.04051 x(2,2) >= 1
cut_clique_1(25,2):  0.00481 x(0,2) + 0.04950 x(1,2) + 0.04962 x(2,2) >= 1
cut_clique_1(26,2):  0.04964 x(0,2) + 0.05103 x(2,2) >= 1
cut_clique_1(27,2):  0.00481 x(0,2) + 0.04945 x(1,2) + 0.05103 x(2,2) >= 1
cut_clique_1(28,2):  0.05731 x(0,2) + 0.04479 x(2,2) >= 1
cut_clique_1(29,2):  0.00391 x(0,2) + 0.04950 x(1,2) + 0.04267 x(2,2) >= 1
cut_clique_1(30,2):  0.00481 x(0,2) + 0.04945 x(1,2) + 0.05207 x(2,2) >= 1
cut_clique_1(31,2):  0.06313 x(0,2) + 0.04217 x(2,2) >= 1
cut_clique_1(32,2):  0.06317 x(0,2) + 0.04011 x(2,2) >= 1
cut_clique_1(33,2):  0.04964 x(0,2) + 0.05487 x(2,2) >= 1
cut_clique_1(34,2):  0.06247 x(0,2) + 0.04040 x(2,2) >= 1
cut_clique_1(35,2):  0.04660 x(0,2) + 0.05888 x(2,2) >= 1
cut_clique_1(36,2):  0.04918 x(1,2) + 0.05502 x(2,2) >= 1
cut_clique_1(37,2):  0.04918 x(1,2) + 0.05722 x(2,2) >= 1
cut_clique_1(38,2):  0.00463 x(0,2) + 0.06054 x(1,2) + 0.03712 x(2,2) >= 1
cut_clique_1(39,2):  0.00433 x(0,2) + 0.04950 x(1,2) + 0.04267 x(2,2) >= 1
cut_clique_1(40,2):  0.05657 x(0,2) + 0.04489 x(2,2) >= 1
cut_clique_1(41,2):  0.00460 x(0,2) + 0.06870 x(1,2) + 0.03343 x(2,2) >= 1
cut_clique_1(42,2):  0.05327 x(0,2) + 0.04851 x(2,2) >= 1
cut_clique_1(43,2):  0.00445 x(0,2) + 0.04945 x(1,2) + 0.05207 x(2,2) >= 1
cut_clique_1(44,2):  0.06381 x(0,2) + 0.04011 x(2,2) >= 1
cut_clique_1(45,2):  0.05970 x(0,2) + 0.04479 x(2,2) >= 1
cut_clique_1(46,2):  0.06317 x(0,2) + 0.04131 x(2,2) >= 1
cut_clique_1(47,2):  0.04964 x(0,2) + 0.05207 x(2,2) >= 1
cut_clique_1(48,2):  0.00481 x(0,2) + 0.04796 x(1,2) + 0.05103 x(2,2) >= 1
cut_clique_1(49,2):  0.00408 x(0,2) + 0.04796 x(1,2) + 0.04389 x(2,2) >= 1
cut_clique_2(0,1):  0.06867 x(0,1) + 0.03927 x(1,1) + 0.07340 x(2,1) >= 1
cut_clique_2(1,1):  0.06904 x(0,1) + 0.03722 x(1,1) + 0.07342 x(2,1) >= 1
cut_clique_2(2,1):  0.07684 x(0,1) + 0.04330 x(1,1) + 0.06348 x(2,1) >= 1
cut_clique_2(3,1):  0.07684 x(0,1) + 0.04464 x(1,1) + 0.06348 x(2,1) >= 1
cut_clique_2(4,1):  0.07316 x(0,1) + 0.04109 x(1,1) + 0.07048 x(2,1) >= 1
cut_clique_2(5,1):  0.06734 x(0,1) + 0.03999 x(1,1) + 0.07946 x(2,1) >= 1
cut_clique_2(6,1):  0.07684 x(0,1) + 0.04602 x(1,1) + 0.06348 x(2,1) >= 1
cut_clique_2(7,1):  0.06904 x(0,1) + 0.03722 x(1,1) + 0.07521 x(2,1) >= 1
cut_clique_2(8,1):  0.06904 x(0,1) + 0.03722 x(1,1) + 0.08498 x(2,1) >= 1
cut_clique_2(9,1):  0.07484 x(0,1) + 0.03422 x(1,1) + 0.07850 x(2,1) >= 1
cut_clique_2(10,1):  0.07484 x(0,1) + 0.03425 x(1,1) + 0.07476 x(2,1) >= 1
cut_clique_2(11,1):  0.05995 x(0,1) + 0.04873 x(1,1) + 0.08717 x(2,1) >= 1
cut_clique_2(12,1):  0.07316 x(0,1) + 0.04236 x(1,1) + 0.06494 x(2,1) >= 1
cut_clique_2(13,1):  0.07389 x(0,1) + 0.03654 x(1,1) + 0.07745 x(2,1) >= 1
cut_clique_2(14,1):  0.07484 x(0,1) + 0.03528 x(1,1) + 0.07850 x(2,1) >= 1
cut_clique_2(15,1):  0.07079 x(0,1) + 0.03927 x(1,1) + 0.07340 x(2,1) >= 1
cut_clique_2(16,1):  0.06718 x(0,1) + 0.04116 x(1,1) + 0.06805 x(2,1) >= 1
cut_clique_2(17,1):  0.05995 x(0,1) + 0.04873 x(1,1) + 0.08630 x(2,1) >= 1
cut_clique_2(18,1):  0.07423 x(0,1) + 0.03959 x(1,1) + 0.07342 x(2,1) >= 1
cut_clique_2(19,1):  0.07548 x(0,1) + 0.04450 x(1,1) + 0.06356 x(2,1) >= 1
cut_clique_2(20,1):  0.07349 x(0,1) + 0.03475 x(1,1) + 0.07998 x(2,1) >= 1
cut_clique_2(21,1):  0.07548 x(0,1) + 0.05000 x(1,1) + 0.06356 x(2,1) >= 1
cut_clique_2(22,1):  0.07349 x(0,1) + 0.03475 x(1,1) + 0.07759 x(2,1) >= 1
cut_clique_2(23,1):  0.06734 x(0,1) + 0.03999 x(1,1) + 0.08343 x(2,1) >= 1
cut_clique_2(24,1):  0.07863 x(0,1) + 0.03475 x(1,1) + 0.07371 x(2,1) >= 1
cut_clique_2(25,1):  0.07389 x(0,1) + 0.03654 x(1,1) + 0.07823 x(2,1) >= 1
cut_clique_2(26,1):  0.07267 x(0,1) + 0.03523 x(1,1) + 0.07408 x(2,1) >= 1
cut_clique_2(27,1):  0.07484 x(0,1) + 0.03867 x(1,1) + 0.07222 x(2,1) >= 1
cut_clique_2(28,1):  0.07147 x(0,1) + 0.04116 x(1,1) + 0.07088 x(2,1) >= 1
cut_clique_2(29,1):  0.06824 x(0,1) + 0.04222 x(1,1) + 0.07048 x(2,1) >= 1
cut_clique_2(30,1):  0.07863 x(0,1) + 0.03927 x(1,1) + 0.07002 x(2,1) >= 1
cut_clique_2(31,1):  0.07349 x(0,1) + 0.03475 x(1,1) + 0.07371 x(2,1) >= 1
cut_clique_2(32,1):  0.07247 x(0,1) + 0.05024 x(1,1) + 0.06709 x(2,1) >= 1
cut_clique_2(33,1):  0.07701 x(0,1) + 0.04236 x(1,1) + 0.06494 x(2,1) >= 1
cut_clique_2(34,1):  0.06904 x(0,1) + 0.03722 x(1,1) + 0.07122 x(2,1) >= 1
cut_clique_2(35,1):  0.06144 x(0,1) + 0.04820 x(1,1) + 0.08396 x(2,1) >= 1
cut_clique_2(36,1):  0.06904 x(0,1) + 0.03959 x(1,1) + 0.07342 x(2,1) >= 1
cut_clique_2(37,1):  0.06718 x(0,1) + 0.04116 x(1,1) + 0.06669 x(2,1) >= 1
cut_clique_2(38,1):  0.07079 x(0,1) + 0.03927 x(1,1) + 0.06612 x(2,1) >= 1
cut_clique_2(39,1):  0.07147 x(0,1) + 0.04157 x(1,1) + 0.07088 x(2,1) >= 1
cut_clique_2(40,1):  0.07389 x(0,1) + 0.03507 x(1,1) + 0.07745 x(2,1) >= 1
cut_clique_2(41,1):  0.07316 x(0,1) + 0.04236 x(1,1) + 0.07273 x(2,1) >= 1
cut_clique_2(42,1):  0.07762 x(0,1) + 0.04576 x(1,1) + 0.06285 x(2,1) >= 1
cut_clique_2(43,1):  0.06944 x(0,1) + 0.03703 x(1,1) + 0.07048 x(2,1) >= 1
cut_clique_2(44,1):  0.07484 x(0,1) + 0.03425 x(1,1) + 0.07850 x(2,1) >= 1
cut_clique_2(45,1):  0.07267 x(0,1) + 0.03523 x(1,1) + 0.07483 x(2,1) >= 1
cut_clique_2(46,1):  0.06904 x(0,1) + 0.03722 x(1,1) + 0.07834 x(2,1) >= 1
cut_clique_2(47,1):  0.06867 x(0,1) + 0.03927 x(1,1) + 0.08074 x(2,1) >= 1
cut_clique_2(48,1):  0.07570 x(0,1) + 0.03523 x(1,1) + 0.07483 x(2,1) >= 1
cut_clique_2(49,1):  0.06718 x(0,1) + 0.04116 x(1,1) + 0.07088 x(2,1) >= 1
cut_clique_2(0,2):  0.05526 x(0,2) + 0.04421 x(2,2) >= 1
cut_clique_2(1,2):  0.05247 x(0,2) + 0.04669 x(2,2) >= 1
cut_clique_2(2,2):  0.05192 x(0,2) + 0.04824 x(2,2) >= 1
cut_clique_2(3,2):  0.05348 x(0,2) + 0.04529 x(2,2) >= 1
cut_clique_2(4,2):  0.05488 x(0,2) + 0.04413 x(2,2) >= 1
cut_clique_2(5,2):  0.05562 x(0,2) + 0.04374 x(2,2) >= 1
cut_clique_2(6,2):  0.05244 x(0,2) + 0.04676 x(2,2) >= 1
cut_clique_2(7,2):  0.05244 x(0,2) + 0.04630 x(2,2) >= 1
cut_clique_2(8,2):  0.05293 x(0,2) + 0.04675 x(2,2) >= 1
cut_clique_3(0,1):  0.06763 x(0,1) + 0.03816 x(1,1) + 0.06834 x(2,1) >= 1
cut_clique_3(1,1):  0.06635 x(0,1) + 0.03882 x(1,1) + 0.06774 x(2,1) >= 1
cut_clique_3(2,1):  0.06738 x(0,1) + 0.03958 x(1,1) + 0.06735 x(2,1) >= 1
cut_clique_3(3,1):  0.06738 x(0,1) + 0.03839 x(1,1) + 0.06735 x(2,1) >= 1
cut_clique_3(4,1):  0.06738 x(0,1) + 0.03954 x(1,1) + 0.06735 x(2,1) >= 1
cut_clique_3(5,1):  0.06638 x(0,1) + 0.03899 x(1,1) + 0.06792 x(2,1) >= 1
cut_clique_3(6,1):  0.06644 x(0,1) + 0.03950 x(1,1) + 0.06733 x(2,1) >= 1
cut_clique_3(7,1):  0.06714 x(0,1) + 0.03817 x(1,1) + 0.06783 x(2,1) >= 1
cut_clique_3(8,1):  0.06714 x(0,1) + 0.03839 x(1,1) + 0.06733 x(2,1) >= 1
cut_clique_3(9,1):  0.06635 x(0,1) + 0.04013 x(1,1) + 0.06756 x(2,1) >= 1
cut_clique_3(10,1):  0.06770 x(0,1) + 0.03943 x(1,1) + 0.06665 x(2,1) >= 1
cut_clique_3(11,1):  0.06778 x(0,1) + 0.03947 x(1,1) + 0.06704 x(2,1) >= 1
cut_clique_3(12,1):  0.06644 x(0,1) + 0.03951 x(1,1) + 0.06733 x(2,1) >= 1
cut_clique_3(13,1):  0.06714 x(0,1) + 0.03856 x(1,1) + 0.06650 x(2,1) >= 1
cut_clique_3(14,1):  0.06669 x(0,1) + 0.03930 x(1,1) + 0.06748 x(2,1) >= 1
cut_clique_3(15,1):  0.06669 x(0,1) + 0.03851 x(1,1) + 0.06748 x(2,1) >= 1
cut_clique_3(16,1):  0.06669 x(0,1) + 0.03813 x(1,1) + 0.06748 x(2,1) >= 1
cut_clique_3(17,1):  0.06669 x(0,1) + 0.03813 x(1,1) + 0.06681 x(2,1) >= 1
cut_clique_3(18,1):  0.06753 x(0,1) + 0.03839 x(1,1) + 0.06733 x(2,1) >= 1
cut_clique_3(19,1):  0.06725 x(0,1) + 0.03994 x(1,1) + 0.06675 x(2,1) >= 1
cut_clique_3(20,1):  0.06714 x(0,1) + 0.03856 x(1,1) + 0.06783 x(2,1) >= 1
cut_clique_3(21,1):  0.06657 x(0,1) + 0.03969 x(1,1) + 0.06760 x(2,1) >= 1
cut_clique_3(22,1):  0.06657 x(0,1) + 0.03850 x(1,1) + 0.06760 x(2,1) >= 1
cut_clique_3(23,1):  0.06724 x(0,1) + 0.03873 x(1,1) + 0.06646 x(2,1) >= 1
cut_clique_3(24,1):  0.06644 x(0,1) + 0.03990 x(1,1) + 0.06733 x(2,1) >= 1
cut_clique_3(25,1):  0.06714 x(0,1) + 0.03817 x(1,1) + 0.06851 x(2,1) >= 1
cut_clique_3(26,1):  0.06742 x(0,1) + 0.03787 x(1,1) + 0.06867 x(2,1) >= 1
cut_clique_3(27,1):  0.06769 x(0,1) + 0.03787 x(1,1) + 0.06799 x(2,1) >= 1
cut_clique_3(28,1):  0.06769 x(0,1) + 0.03787 x(1,1) + 0.06845 x(2,1) >= 1
cut_clique_3(29,1):  0.06766 x(0,1) + 0.03897 x(1,1) + 0.06753 x(2,1) >= 1
cut_clique_3(30,1):  0.06766 x(0,1) + 0.03780 x(1,1) + 0.06753 x(2,1) >= 1
cut_clique_3(31,1):  0.06918 x(0,1) + 0.03766 x(1,1) + 0.06753 x(2,1) >= 1
cut_clique_3(32,1):  0.06849 x(0,1) + 0.03766 x(1,1) + 0.06753 x(2,1) >= 1
cut_clique_3(33,1):  0.06635 x(0,1) + 0.03894 x(1,1) + 0.06867 x(2,1) >= 1
cut_clique_3(34,1):  0.06750 x(0,1) + 0.03889 x(1,1) + 0.06757 x(2,1) >= 1
cut_clique_3(35,1):  0.06732 x(0,1) + 0.03978 x(1,1) + 0.06713 x(2,1) >= 1
cut_clique_3(36,1):  0.06732 x(0,1) + 0.03818 x(1,1) + 0.06713 x(2,1) >= 1
cut_clique_3(37,1):  0.06841 x(0,1) + 0.03922 x(1,1) + 0.06622 x(2,1) >= 1
cut_clique_3(38,1):  0.06706 x(0,1) + 0.03879 x(1,1) + 0.06676 x(2,1) >= 1
cut_clique_3(39,1):  0.06875 x(0,1) + 0.03872 x(1,1) + 0.06653 x(2,1) >= 1
cut_clique_3(40,1):  0.06706 x(0,1) + 0.03865 x(1,1) + 0.06676 x(2,1) >= 1
cut_clique_3(41,1):  0.06706 x(0,1) + 0.03826 x(1,1) + 0.06676 x(2,1) >= 1
cut_clique_3(42,1):  0.06706 x(0,1) + 0.03826 x(1,1) + 0.06876 x(2,1) >= 1
cut_clique_3(43,1):  0.06706 x(0,1) + 0.03864 x(1,1) + 0.06876 x(2,1) >= 1
cut_clique_3(44,1):  0.06706 x(0,1) + 0.03826 x(1,1) + 0.06876 x(2,1) >= 1
cut_clique_3(45,1):  0.06778 x(0,1) + 0.03798 x(1,1) + 0.06704 x(2,1) >= 1
cut_clique_3(46,1):  0.06742 x(0,1) + 0.03856 x(1,1) + 0.06730 x(2,1) >= 1
cut_clique_3(47,1):  0.06909 x(0,1) + 0.03789 x(1,1) + 0.06724 x(2,1) >= 1
cut_clique_3(48,1):  0.06724 x(0,1) + 0.03873 x(1,1) + 0.06657 x(2,1) >= 1
cut_clique_3(49,1):  0.06635 x(0,1) + 0.03933 x(1,1) + 0.06774 x(2,1) >= 1
cut_clique_4(0,2):  0.02686 x(0,2) + 0.02492 x(1,2) + 0.02273 x(2,2) >= 1
cut_clique_4(1,2):  0.02686 x(0,2) + 0.02492 x(1,2) + 0.02478 x(2,2) >= 1
cut_clique_4(2,2):  0.02445 x(0,2) + 0.02492 x(1,2) + 0.02751 x(2,2) >= 1
cut_clique_4(3,2):  0.02558 x(0,2) + 0.02395 x(1,2) + 0.02773 x(2,2) >= 1
Bounds
 0 <= C <= 44
 14 <= x(0,0) <= 43
 0 <= y(0,1,0) <= 1
 0 <= y(1,0,0) <= 1
 0 <= v(0,1,0)p <= 36
 0 <= v(0,1,0)n <= 23
 0 <= v(1,0,0)p <= 19
 0 <= v(1,0,0)n <= 40
 0 <= u(0,1,0)p <= 440
 0 <= u(0,1,0)n <= 440
 0 <= u(1,0,0)p <= 440
 0 <= u(1,0,0)n <= 440
 0 <= y(0,2,0) <= 1
 0 <= y(2,0,0) <= 1
 0 <= v(0,2,0)p <= 28
 0 <= v(0,2,0)n <= 30
 0 <= v(2,0,0)p <= 27
 0 <= v(2,0,0)n <= 31
 0 <= u(0,2,0)p <= 440
 0 <= u(0,2,0)n <= 440
 0 <= u(2,0,0)p <= 440
 0 <= u(2,0,0)n <= 440
 4 <= x(1,0) <= 34
 0 <= y(1,2,0) <= 1
 0 <= y(2,1,0) <= 1
 0 <= v(1,2,0)p <= 19
 0 <= v(1,2,0)n <= 40
 0 <= v(2,1,0)p <= 35
 0 <= v(2,1,0)n <= 24
 0 <= u(1,2,0)p <= 440
 0 <= u(1,2,0)n <= 440
 0 <= u(2,1,0)p <= 440
 0 <= u(2,1,0)n <= 440
 13 <= x(2,0) <= 42
 0 <= x(0,1) <= 29
 0 <= y(0,1,1) <= 1
 0 <= y(1,0,1) <= 1
 0 <= v(0,1,1)p <= 25
 0 <= v(0,1,1)n <= 34
 0 <= v(1,0,1)p <= 23
 0 <= v(1,0,1)n <= 36
 0 <= u(0,1,1)p <= 440
 0 <= u(0,1,1)n <= 440
 0 <= u(1,0,1)p <= 440
 0 <= u(1,0,1)n <= 440
 0 <= y(0,2,1) <= 1
 0 <= y(2,0,1) <= 1
 0 <= v(0,2,1)p <= 22
 0 <= v(0,2,1)n <= 36
 0 <= v(2,0,1)p <= 22
 0 <= v(2,0,1)n <= 36
 0 <= u(0,2,1)p <= 440
 0 <= u(0,2,1)n <= 440
 0 <= u(2,0,1)p <= 440
 0 <= u(2,0,1)n <= 440
 0 <= x(1,1) <= 30
 0 <= y(1,2,1) <= 1
 0 <= y(2,1,1) <= 1
 0 <= v(1,2,1)p <= 23
 0 <= v(1,2,1)n <= 36
 0 <= v(2,1,1)p <= 25
 0 <= v(2,1,1)n <= 34
 0 <= u(1,2,1)p <= 440
 0 <= u(1,2,1)n <= 440
 0 <= u(2,1,1)p <= 440
 0 <= u(2,1,1)n <= 440
 0 <= x(2,1) <= 29
 7 <= x(0,2) <= 36
 0 <= y(0,1,2) <= 1
 0 <= y(1,0,2) <= 1
 0 <= v(0,1,2)p <= 22
 0 <= v(0,1,2)n <= 37
 0 <= v(1,0,2)p <= 23
 0 <= v(1,0,2)n <= 36
 0 <= u(0,1,2)p <= 440
 0 <= u(0,1,2)n <= 440
 0 <= u(1,0,2)p <= 440
 0 <= u(1,0,2)n <= 440
 0 <= y(0,2,2) <= 1
 0 <= y(2,0,2) <= 1
 0 <= v(0,2,2)p <= 23
 0 <= v(0,2,2)n <= 35
 0 <= v(2,0,2)p <= 22
 0 <= v(2,0,2)n <= 36
 0 <= u(0,2,2)p <= 440
 0 <= u(0,2,2)n <= 440
 0 <= u(2,0,2)p <= 440
 0 <= u(2,0,2)n <= 440
 7 <= x(1,2) <= 37
 0 <= y(1,2,2) <= 1
 0 <= y(2,1,2) <= 1
 0 <= v(1,2,2)p <= 24
 0 <= v(1,2,2)n <= 35
 0 <= v(2,1,2)p <= 22
 0 <= v(2,1,2)n <= 37
 0 <= u(1,2,2)p <= 440
 0 <= u(1,2,2)n <= 440
 0 <= u(2,1,2)p <= 440
 0 <= u(2,1,2)n <= 440
 7 <= x(2,2) <= 36
End
